File : Instances/p59
Use 145 s

27836

0 0 1 0 1 0 1 0 0 0 1 0 0 1 1 0 1 1 1 1 1 0 0 1 1 1 0 1 1 0 
18 19 2 27 2 6 16 27 27 28 4 28 13 13 28 18 13 20 16 27 18 16 23 24 10 18 27 14 4 2 19 19 4 16 27 6 20 20 24 16 18 20 6 4 13 19 13 16 19 14 24 16 24 16 20 6 18 20 18 25 4 17 18 20 13 25 23 14 28 25 18 6 19 20 23 23 10 23 20 16 10 17 14 25 4 10 6 2 27 18 28 19 25 25 17 13 28 6 17 28 17 16 25 18 4 24 4 24 27 13 19 4 27 6 19 20 28 25 17 20 14 25 17 19 4 16 2 28 14 17 28 24 25 10 23 20 13 13 28 10 6 27 28 25 25 2 24 16 27 25 24 17 23 17 13 28 2 16 20 13 13 27 10 24 23 27 23 4 13 2 23 20 19 14 19 2 17 10 4 10 2 16 2 19 6 20 28 23 17 2 2 16 6 4 25 6 18 2 10 19 
